NAME : I-n10-k3
CAPACITY : 282
NODE_COORD_SECTION
1   494   170
2   421   109
3   145   440
4   399   156
5   308   411
6   405   463
7   194   316
8   243   313
9   83   173
10   428   95
DEMAND_SECTION
1   0
2   56
3   82
4   54
5   74
6   47
7   88
8   49
9   6
10   10
DEPOT_SECTION
    1
    -1
EOF